p edge 40 184 5
v 7 2 5 10 28 33 39 40
v 7 8 9 15 20 27 29 31
v 5 4 7 12 14 23
v 10 3 11 16 21 24 26 32 34 37 38
v 11 1 6 13 17 18 19 22 25 30 35 36
e 1 5
e 1 6
e 1 9
e 1 14
e 1 24
e 1 26
e 1 28
e 1 29
e 1 32
e 1 33
e 1 35
e 1 40
e 2 7
e 2 13
e 2 16
e 2 23
e 2 32
e 2 40
e 3 8
e 3 11
e 3 12
e 3 13
e 3 20
e 3 25
e 3 32
e 3 34
e 4 6
e 4 10
e 4 14
e 4 22
e 4 29
e 4 32
e 4 35
e 5 6
e 5 9
e 5 10
e 5 13
e 5 14
e 5 16
e 5 19
e 5 22
e 5 25
e 5 31
e 5 32
e 5 34
e 5 38
e 5 39
e 6 8
e 6 9
e 6 16
e 6 17
e 6 18
e 6 22
e 6 23
e 6 26
e 6 28
e 6 30
e 6 34
e 6 38
e 7 8
e 7 19
e 7 23
e 7 24
e 7 28
e 7 33
e 7 37
e 7 38
e 8 12
e 8 16
e 8 19
e 8 28
e 8 37
e 8 38
e 9 11
e 9 22
e 9 29
e 10 16
e 10 25
e 10 40
e 11 13
e 11 16
e 11 26
e 11 28
e 11 31
e 11 33
e 11 34
e 12 13
e 12 19
e 12 23
e 12 24
e 12 25
e 12 26
e 12 27
e 12 37
e 12 38
e 12 39
e 12 40
e 13 19
e 13 27
e 13 34
e 13 40
e 14 21
e 14 24
e 14 25
e 14 26
e 14 28
e 14 36
e 15 31
e 15 34
e 15 35
e 15 38
e 16 17
e 16 21
e 16 24
e 16 25
e 16 28
e 16 29
e 16 31
e 17 18
e 17 20
e 17 22
e 17 26
e 17 27
e 17 29
e 17 31
e 17 33
e 17 35
e 17 38
e 18 19
e 18 28
e 18 29
e 18 36
e 18 40
e 19 20
e 19 21
e 19 25
e 19 32
e 19 34
e 20 29
e 20 31
e 21 23
e 21 25
e 21 30
e 21 31
e 21 33
e 21 38
e 22 23
e 22 32
e 22 37
e 23 30
e 23 31
e 23 40
e 24 29
e 24 40
e 25 27
e 25 28
e 25 38
e 25 39
e 26 29
e 26 32
e 26 39
e 29 30
e 29 35
e 29 37
e 29 38
e 30 34
e 30 35
e 30 36
e 31 32
e 31 36
e 31 37
e 31 38
e 31 39
e 32 33
e 32 36
e 32 37
e 32 38
e 32 40
e 33 34
e 33 36
e 33 39
e 36 37
e 38 40
e 39 40
